(assert (forall ((pkt_0_4_6_0  Int  )(state_group_0_state_0_5_7_0  Int  )(state_group_0_state_1_6_8_0  Int  )) (let ((_n0 state_group_0_state_0_5_7_0 ))
(let ((_n1 2 ))
(let ((_n2 (ite (=  _n0  1)  _n1   _n0  ) ))
(let ((_n3 state_group_0_state_1_6_8_0 ))
(let ((_n4 false ))
(let ((_n5 (ite (=  _n0  1)  (ite  _n4  1 0)   _n3  ) ))
(let ((_n6 3 ))
(let ((_n7 (ite (=  _n5  999)  _n6   _n2  ) ))
(let ((_n8 (ite (=  _n2  2)  _n7   _n2  ) ))
(let ((_n9 true ))
(let ((_n10 (=   _n0   (ite  _n9  1 0) ) ))
(let ((_n11 pkt_0_4_6_0 ))
(let ((_n12 (ite (=  _n0  1)  _n11   (ite  _n4  1 0)  ) ))
(let ((_n13 (ite (=  _n0  1)  _n3   (ite  _n4  1 0)  ) ))
(let ((_n14 (+   _n13   _n12 ) ))
(let ((_n15 (=   _n14   _n6 ) ))
(let ((_n16 (ite (=  _n0  1)  _n15   _n4  ) ))
(let ((_n17 (not  _n10 ) ))
(let ((_n18 (or   _n16   _n17 ) ))
(let ((_n19 (ite  _n18   (ite  _n4  1 0)   _n1  ) ))
(let ((_n20 (ite  _n18   _n0   (ite  _n4  1 0)  ) ))
(let ((_n21 (+   _n20   _n19 ) ))
(let ((_n22 (and   _n16   _n10 ) ))
(let ((_n23 (ite  _n22   _n1   (ite  _n4  1 0)  ) ))
(let ((_n24 (ite  _n22   (ite  _n4  1 0)   _n0  ) ))
(let ((_n25 (+   _n24   _n23 ) ))
(let ((_n26 (ite (=  (ite  _n16  1 0)  1)  _n25   _n21  ) ))
(let ((_n27 (ite (=  (ite  _n10  1 0)  1)  _n26   _n0  ) ))
(let ((_n28 (=   _n27   _n8 ) ))
(let ((_n30 (+   _n5   (ite  _n9  1 0) ) ))
(let ((_n31 (ite (=  _n2  2)  _n30   _n5  ) ))
(let ((_n32 (ite (=  _n0  1)  (ite  _n4  1 0)   _n0  ) ))
(let ((_n33 (=   _n32   _n1 ) ))
(let ((_n34 (not  _n33 ) ))
(let ((_n35 (and   _n17   _n34 ) ))
(let ((_n36 (or   _n35   _n10 ) ))
(let ((_n37 (not  _n36 ) ))
(let ((_n38 (+   _n3   (ite  _n37  1 0) ) ))
(let ((_n39 (ite (=  (ite  _n35  1 0)  1)  _n3   _n38  ) ))
(let ((_n40 (ite (=  (ite  _n17  1 0)  1)  _n39   _n3  ) ))
(let ((_n41 (not  _n18 ) ))
(let ((_n42 (ite  _n18   _n3   (ite  _n4  1 0)  ) ))
(let ((_n43 (+   _n42   (ite  _n41  1 0) ) ))
(let ((_n44 (ite  _n22   (ite  _n4  1 0)   _n3  ) ))
(let ((_n45 (+   _n44   (ite  _n22  1 0) ) ))
(let ((_n46 (ite (=  (ite  _n16  1 0)  1)  _n45   _n43  ) ))
(let ((_n47 (ite (=  (ite  _n10  1 0)  1)  _n46   _n40  ) ))
(let ((_n48 (=   _n47   _n31 ) ))
(let ((_n50 (ite (=  _n11  0)  _n11   (ite  _n4  1 0)  ) ))
(let ((_n51 (ite (=  _n11  0)  _n50   _n11  ) ))
(let ((_n52 (=   _n51   _n11 ) ))
(implies  (and (and (>= state_group_0_state_1_6_8_0 0) (< state_group_0_state_1_6_8_0 1024 ))  (and (and (>= state_group_0_state_0_5_7_0 0) (< state_group_0_state_0_5_7_0 1024 ))  (and (>= pkt_0_4_6_0 0) (< pkt_0_4_6_0 1024 )) ) )   (and  _n28  _n48  _n52 )  ))))))))))))))))))))))))))))))))))))))))))))))))))))))
(check-sat)
(get-model)
(exit)